
Log started (V11.0.0) Fri May 16 17:00:58 2008

Tried aggregator 1 time.
Reduced MIP has 250 rows, 10001 columns, and 20050 nonzeros.
Presolve time =    0.08 sec.
Clique table members: 200.
MIP emphasis: balance optimality and feasibility.
MIP search method: dynamic search.
Parallel mode: none, using 1 thread.
Root relaxation solution time =    0.55 sec.

        Nodes                                         Cuts/
   Node  Left     Objective  IInf  Best Integer     Best Node    ItCnt     Gap

*     0+    0                         6016.0000      104.6267      585   98.26%
*     0+    0                          172.0000      104.6267      585   39.17%
      0     0      105.0048    93      172.0000      Fract: 6      722   38.95%
*     0+    0                          159.0000      105.0048      722   33.96%
      0     0      109.7768    94      159.0000      Cuts: 35     1297   30.96%
*     0+    0                          147.0000      109.7768     1297   25.32%
      0     0      110.0423    87      147.0000      Cuts: 13     1396   25.14%
*     0+    0                          139.0000      110.0423     1396   20.83%
      0     0      110.0429   100      139.0000      Cuts: 16     1441   20.83%
*     0+    0                          134.0000      110.0429     1441   17.88%
      0     0      110.1434   103      134.0000      Cuts: 14     1480   17.80%
*     0+    0                          130.0000      110.1434     1480   15.27%
      0     0      110.1449    91      130.0000      Cuts: 10     1519   15.27%
*     0+    0                          129.0000      110.1449     1519   14.62%
      0     0      110.1524   101      129.0000      Cuts: 17     1598   14.61%
*     0+    0                          128.0000      110.1524     1598   13.94%
*     0+    0                          127.0000      110.1524     1598   13.27%
*     0+    0                          126.0000      110.1524     1598   12.58%
*     0+    0                          125.0000      110.1524     1598   11.88%
*     0+    0                          122.0000      110.1524     1598    9.71%
      0     2      111.0000    95      122.0000      110.1524     1598    9.71%
    100    98      112.0000    54      122.0000      111.0000     4855    9.02%
*   200+  179                          121.0000      111.0000     7846    8.26%
    200   180      113.0077    50      121.0000      111.0000     7846    8.26%
    300   249      113.0000    47      121.0000      111.0000    11465    8.26%
    400   308      113.0000    43      121.0000      111.0000    16325    8.26%
    500   364      113.0000    47      121.0000      111.0000    20238    8.26%
*   506+  245                          120.0000      114.8209    23349    4.32%
    600   273      116.0000    58      120.0000      114.8443    25160    4.30%
    700   304      118.0000    34      120.0000      114.8443    27987    4.30%
    800   281        cutoff            120.0000      114.8759    31276    4.27%
    900   135        cutoff            120.0000      116.0000    44577    3.33%
   1000    35    infeasible            120.0000      119.0000    49713    0.83%
Elapsed time =  64.47 sec. (tree size =  0.27 MB, solutions = 15)

Clique cuts applied:  1
Cover cuts applied:  60
Implied bound cuts applied:  56
Mixed integer rounding cuts applied:  15
Gomory fractional cuts applied:  3

Solution pool: 15 solutions saved.

MIP - Integer optimal solution:  Objective = 1.2000000000e+002
Solution time =   64.81 sec.  Iterations = 50511  Nodes = 1036


Incumbent solution
Variable Name           Solution Value
Cmax                        120.000000
X_1_38                        1.000000
X_2_41                        1.000000
X_3_13                        1.000000
X_4_4                         1.000000
X_5_13                        1.000000
X_6_23                        1.000000
X_7_4                         1.000000
X_8_19                        1.000000
X_9_14                        1.000000
X_10_28                       1.000000
X_11_32                       1.000000
X_12_14                       1.000000
X_13_14                       1.000000
X_14_38                       1.000000
X_15_4                        1.000000
X_16_47                       1.000000
X_17_28                       1.000000
X_18_14                       1.000000
X_19_37                       1.000000
X_20_21                       1.000000
X_21_46                       1.000000
X_22_49                       1.000000
X_23_23                       1.000000
X_24_14                       1.000000
X_25_14                       1.000000
X_26_20                       1.000000
X_27_16                       1.000000
X_28_13                       1.000000
X_29_50                       1.000000
X_30_2                        1.000000
X_31_2                        1.000000
X_32_23                       1.000000
X_33_33                       1.000000
X_34_2                        1.000000
X_35_4                        1.000000
X_36_14                       1.000000
X_37_28                       1.000000
X_38_43                       1.000000
X_39_14                       1.000000
X_40_28                       1.000000
X_41_45                       1.000000
X_42_27                       1.000000
X_43_1                        1.000000
X_44_3                        1.000000
X_45_46                       1.000000
X_46_13                       1.000000
X_47_50                       1.000000
X_48_29                       1.000000
X_49_36                       1.000000
X_50_14                       1.000000
X_51_20                       1.000000
X_52_10                       1.000000
X_53_36                       1.000000
X_54_14                       1.000000
X_55_14                       1.000000
X_56_9                        1.000000
X_57_17                       1.000000
X_58_30                       1.000000
X_59_23                       1.000000
X_60_47                       1.000000
X_61_20                       1.000000
X_62_18                       1.000000
X_63_13                       1.000000
X_64_4                        1.000000
X_65_36                       1.000000
X_66_36                       1.000000
X_67_14                       1.000000
X_68_28                       1.000000
X_69_44                       1.000000
X_70_28                       1.000000
X_71_22                       1.000000
X_72_7                        1.000000
X_73_8                        1.000000
X_74_13                       1.000000
X_75_4                        1.000000
X_76_7                        1.000000
X_77_14                       1.000000
X_78_39                       1.000000
X_79_44                       1.000000
X_80_43                       1.000000
X_81_31                       1.000000
X_82_28                       1.000000
X_83_2                        1.000000
X_84_19                       1.000000
X_85_50                       1.000000
X_86_34                       1.000000
X_87_43                       1.000000
X_88_28                       1.000000
X_89_14                       1.000000
X_90_28                       1.000000
X_91_36                       1.000000
X_92_12                       1.000000
X_93_13                       1.000000
X_94_14                       1.000000
X_95_36                       1.000000
X_96_14                       1.000000
X_97_36                       1.000000
X_98_36                       1.000000
X_99_28                       1.000000
X_100_15                      1.000000
X_101_3                       1.000000
X_102_13                      1.000000
X_103_29                      1.000000
X_104_38                      1.000000
X_105_9                       1.000000
X_106_45                      1.000000
X_107_4                       1.000000
X_108_14                      1.000000
X_109_3                       1.000000
X_110_26                      1.000000
X_111_28                      1.000000
X_112_7                       1.000000
X_113_2                       1.000000
X_114_14                      1.000000
X_115_23                      1.000000
X_116_19                      1.000000
X_117_42                      1.000000
X_118_14                      1.000000
X_119_28                      1.000000
X_120_4                       1.000000
X_121_28                      1.000000
X_122_10                      1.000000
X_123_23                      1.000000
X_124_4                       1.000000
X_125_47                      1.000000
X_126_28                      1.000000
X_127_4                       1.000000
X_128_14                      1.000000
X_129_32                      1.000000
X_130_14                      1.000000
X_131_14                      1.000000
X_132_14                      1.000000
X_133_47                      1.000000
X_134_47                      1.000000
X_135_39                      1.000000
X_136_14                      1.000000
X_137_5                       1.000000
X_138_12                      1.000000
X_139_47                      1.000000
X_140_2                       1.000000
X_141_4                       1.000000
X_142_36                      1.000000
X_143_50                      1.000000
X_144_4                       1.000000
X_145_11                      1.000000
X_146_13                      1.000000
X_147_27                      1.000000
X_148_7                       1.000000
X_149_39                      1.000000
X_150_14                      1.000000
X_151_7                       1.000000
X_152_13                      1.000000
X_153_28                      1.000000
X_154_50                      1.000000
X_155_33                      1.000000
X_156_29                      1.000000
X_157_47                      1.000000
X_158_28                      1.000000
X_159_47                      1.000000
X_160_28                      1.000000
X_161_28                      1.000000
X_162_44                      1.000000
X_163_24                      1.000000
X_164_2                       1.000000
X_165_14                      1.000000
X_166_25                      1.000000
X_167_4                       1.000000
X_168_44                      1.000000
X_169_4                       1.000000
X_170_19                      1.000000
X_171_47                      1.000000
X_172_14                      1.000000
X_173_39                      1.000000
X_174_14                      1.000000
X_175_29                      1.000000
X_176_23                      1.000000
X_177_20                      1.000000
X_178_47                      1.000000
X_179_35                      1.000000
X_180_13                      1.000000
X_181_39                      1.000000
X_182_47                      1.000000
X_183_31                      1.000000
X_184_14                      1.000000
X_185_3                       1.000000
X_186_24                      1.000000
X_187_40                      1.000000
X_188_13                      1.000000
X_189_13                      1.000000
X_190_28                      1.000000
X_191_14                      1.000000
X_192_6                       1.000000
X_193_14                      1.000000
X_194_23                      1.000000
X_195_3                       1.000000
X_196_48                      1.000000
X_197_47                      1.000000
X_198_20                      1.000000
X_199_23                      1.000000
X_200_28                      1.000000
All other variables in the range 1-10001 are 0.
